539
435
448
586
460
459
413
462
398
457
403
539
469
480
518
462
523
504
491
433
411
620
427
481
450
641
683
400
495
427
441
443
501
524
456
444
517
502
402
441
449
593
515
442
494
546
541
518
408
577
487
454
487
514
454
639
519
416
570
544
520
427
652
456
452
529
516
488
610
456
460
471
504
532
484
435
492
428
594
439
416
431
427
434
473
483
478
436
467
450
684
583
509
513
528
415
492
343
447
467
